20	5
0	9	4	1	2	7	9	5	12	6	3
1	1	15
2	0
3	0
4	3	17	18	13
5	1	10
6	1	8
7	0
8	4	15	19	17	11
9	7	18	14	10	20	2	13	16
10	2	15	19
11	1	14
12	2	13	18
13	1	21
14	1	21
15	1	21
16	1	21
17	1	21
18	1	21
19	1	21
20	1	21
21	0
0	0	0	0	0	0	0
1	2	4	3	1	3	5
2	9	3	3	2	5	3
3	6	5	2	5	2	5
4	7	2	3	1	2	2
5	6	1	5	1	1	3
6	7	4	4	3	4	1
7	4	2	1	1	3	2
8	2	5	2	3	2	2
9	10	4	1	3	3	3
10	7	4	2	1	3	1
11	2	5	4	1	2	2
12	5	1	5	3	1	5
13	10	2	5	2	3	2
14	6	5	4	3	5	4
15	4	3	4	1	3	4
16	9	5	5	4	3	4
17	1	3	5	4	2	2
18	7	1	2	4	5	4
19	6	2	4	3	3	1
20	4	2	1	1	1	5
21	0	0	0	0	0	0
10	11	9	10	11
